(set-logic ALL)
(declare-fun seed0_T_1 () Bool)
(declare-fun seed0_T_2 () Bool)
(declare-fun seed0_var_0xINPUT_338015 () String)
(assert (and (or (= seed0_T_1 (= seed0_var_0xINPUT_338015 "Search")) (xor (str.contains (str.++ seed0_var_0xINPUT_338015 "2mHWfY64cp7rx5MvbC8z") (str.++ seed0_var_0xINPUT_338015 "8EsDQlyMTkURrIB")) (str.suffixof (str.++ seed0_var_0xINPUT_338015 "OANhjYD") (str.++ seed0_var_0xINPUT_338015 "iZU8GkXnR1A4xEu7jYC")))) (or (= seed0_T_2 (not seed0_T_1)) (xor (str.suffixof (str.++ seed0_var_0xINPUT_338015 "uIfd0oZLGPqbj1Xl") (str.++ seed0_var_0xINPUT_338015 "eQj4R")) (str.contains (str.++ seed0_var_0xINPUT_338015 "hDj5M3FOWzEHigK7sATq") (str.++ seed0_var_0xINPUT_338015 "fxbS")))) (or seed0_T_2 (or (str.prefixof (str.++ seed0_var_0xINPUT_338015 "0EShPcWTJ8F2nl5eZpRX") (str.++ seed0_var_0xINPUT_338015 "POM1a0qCDL9j4b")) (str.suffixof (str.++ seed0_var_0xINPUT_338015 "Lrca8FIyK") (str.++ seed0_var_0xINPUT_338015 "L4Ndm5DJktHoYVQrPTKG"))))))
(check-sat)
(exit)